NAME : block_34.488462.tour
COMMENT : Length = 488462
COMMENT : Found by LKH-3 [Keld Helsgaun] Mon Feb  2 23:13:40 2026
TYPE : TOUR
DIMENSION : 138
TOUR_SECTION
23
10
3
11
24
37
50
62
61
49
48
60
72
73
83
82
92
93
103
102
118
2
138
1
104
119
133
134
120
105
106
121
122
107
108
123
124
109
94
110
125
126
111
95
85
84
74
64
63
51
39
38
25
12
4
5
6
14
13
26
27
40
52
53
41
28
15
16
29
42
54
66
65
75
76
86
96
112
127
128
113
97
87
77
67
55
43
30
17
18
31
44
56
68
78
88
98
114
129
135
136
130
115
99
89
79
69
57
45
32
19
7
20
33
46
58
70
80
90
100
116
131
137
132
117
101
91
81
71
59
47
34
21
8
9
22
35
36
-1
EOF
